NAME: PointSet_Angle_15_9
TYPE: TSP
COMMENT: Points chosen discrete uniformly at random out of ${0, \ldots, 500}^2$.
DIMENSION: 15
EDGE_WEIGHT_TYPE: EUC_2D
NODE_COORD_SECTION
1 59 60
2 121 208
3 389 443
4 408 392
5 120 332
6 54 490
7 336 259
8 437 174
9 72 323
10 227 485
11 63 28
12 313 45
13 438 213
14 239 96
15 149 450
EOF
